Solver command line: ['C:\\Program Files\\IBM\\ILOG\\CPLEX_Studio2211\\cplex\\bin\\x64_win64\\cplex.exe']


Welcome to IBM(R) ILOG(R) CPLEX(R) Interactive Optimizer 22.1.1.0
  with Simplex, Mixed Integer & Barrier Optimizers
5725-A06 5725-A29 5724-Y48 5724-Y49 5724-Y54 5724-Y55 5655-Y21
Copyright IBM Corp. 1988, 2022.  All Rights Reserved.

Type 'help' for a list of available commands.
Type 'help' followed by a command name for more
information on commands.

CPLEX> Logfile 'cplex.log' closed.
Logfile 'C:\Users\wangy\Documents\GitHub\re_optimization\result_site_specific\tmp2vcgar2s.cplex.log' open.
CPLEX> Problem 'C:\Users\wangy\Documents\GitHub\re_optimization\result_site_specific\tmpurkdz9xn.pyomo.lp' read.
Read time = 0.41 sec. (9.13 ticks)
CPLEX> Problem name         : C:\Users\wangy\Documents\GitHub\re_optimization\result_site_specific\tmpurkdz9xn.pyomo.lp
Objective sense      : Minimize
Variables            :   65769  [Nneg: 35068,  Free: 8792,  Binary: 9,
                                 Other: 21900]
Objective nonzeros   :      17
Linear constraints   :   87665  [Less: 46741,  Greater: 5,  Equal: 40919]
  Nonzeros           :  225066
  RHS nonzeros       :    3551

Variables            : Min LB: 0.000000         Max UB: 1.000000       
Objective nonzeros   : Min   : 1.000000         Max   : 1.000000       
Linear constraints   :
  Nonzeros           : Min   : 0.002531399      Max   : 100000.0       
  RHS nonzeros       : Min   : 0.2240000        Max   : 100000.0       
CPLEX> Version identifier: 22.1.1.0 | 2022-11-27 | 9160aff4d
Tried aggregator 3 times.
MIP Presolve eliminated 53546 rows and 33104 columns.
Aggregator did 10452 substitutions.
Reduced MIP has 23667 rows, 22213 columns, and 70859 nonzeros.
Reduced MIP has 5 binaries, 0 generals, 0 SOSs, and 0 indicators.
Presolve time = 0.25 sec. (226.21 ticks)
Found incumbent of value 262681.379467 after 0.36 sec. (324.01 ticks)
Probing time = 0.00 sec. (1.31 ticks)
Tried aggregator 1 time.
Detecting symmetries...
Reduced MIP has 23667 rows, 22213 columns, and 70859 nonzeros.
Reduced MIP has 5 binaries, 0 generals, 0 SOSs, and 0 indicators.
Presolve time = 0.06 sec. (45.78 ticks)
Probing time = 0.01 sec. (1.21 ticks)
MIP emphasis: balance optimality and feasibility.
MIP search method: dynamic search.
Parallel mode: deterministic, using up to 16 threads.
Root relaxation solution time = 1.75 sec. (881.08 ticks)

        Nodes                                         Cuts/
   Node  Left     Objective  IInf  Best Integer    Best Bound    ItCnt     Gap

*     0+    0                       262681.3795    -7731.9644           102.94%
      0     0     6157.4064     1   262681.3795     6157.4064       72   97.66%
*     0+    0                         7762.0673     6157.4064            20.67%
*     0+    0                         6808.3946     6157.4064             9.56%
      0     0        cutoff           6808.3946                    690    0.00%
Elapsed time = 2.61 sec. (1730.68 ticks, tree = 0.01 MB, solutions = 3)

Root node processing (before b&c):
  Real time             =    2.62 sec. (1733.84 ticks)
Parallel b&c, 16 threads:
  Real time             =    0.00 sec. (0.00 ticks)
  Sync time (average)   =    0.00 sec.
  Wait time (average)   =    0.00 sec.
                          ------------
Total (root+branch&cut) =    2.62 sec. (1733.84 ticks)

Solution pool: 3 solutions saved.

MIP - Integer optimal solution:  Objective =  6.8083946122e+03
Solution time =    2.62 sec.  Iterations = 690  Nodes = 0
Deterministic time = 1734.03 ticks  (660.58 ticks/sec)

CPLEX> Incumbent solution written to file 'C:\Users\wangy\Documents\GitHub\re_optimization\result_site_specific\tmpmjoe01rb.cplex.sol'.
CPLEX> 
